238
400
320	4
319	4
318	4
317	9
316	3
315	2
314	3
313	3
312	4
311	1
310	3
309	3
308	1
307	3
306	3
304	3
303	2
302	8
301	1
300	3
299	6
298	4
297	2
296	2
295	5
294	2
293	7
292	3
291	2
290	1
289	3
288	2
287	2
286	2
285	2
284	3
283	6
282	1
281	5
280	2
279	6
278	1
277	4
276	3
275	4
274	6
273	3
272	6
271	3
270	2
269	3
268	6
267	4
266	2
265	4
264	2
263	2
262	1
261	2
260	1
259	2
258	3
257	3
256	3
255	2
254	4
253	4
252	3
251	2
250	2
249	3
248	1
247	2
246	2
245	5
244	2
243	2
242	2
241	3
240	1
239	2
238	2
237	3
236	4
235	3
234	4
233	3
232	3
231	1
230	2
229	3
228	5
227	4
226	3
225	2
224	2
223	4
222	6
221	5
220	8
219	3
218	3
217	2
216	3
215	3
214	3
213	5
212	2
211	2
210	5
209	4
208	4
207	2
206	1
205	4
204	5
203	3
202	3
201	4
200	4
199	1
198	4
197	2
196	3
195	2
194	3
193	6
192	5
191	4
190	2
189	3
188	2
187	1
186	2
185	1
184	5
183	2
182	10
181	1
180	5
179	4
178	4
177	4
176	1
175	3
174	3
173	5
172	6
171	2
170	2
169	6
168	1
167	2
166	1
165	4
164	2
163	4
162	5
161	1
160	2
159	1
158	3
157	1
156	1
155	2
154	6
153	2
152	2
151	1
150	3
149	1
148	3
147	2
146	3
145	1
144	3
143	4
142	2
141	4
140	3
139	6
138	3
137	2
136	4
135	5
134	1
132	3
131	4
130	3
129	2
128	4
127	4
126	6
125	6
124	2
123	2
122	2
121	3
120	4
119	5
118	3
117	4
116	4
115	1
114	1
113	4
112	2
111	3
110	6
109	4
108	5
107	3
106	7
105	2
104	6
103	2
102	4
101	1
100	4
99	5
98	1
97	3
96	1
95	3
94	1
93	4
92	2
91	3
90	3
89	4
87	1
86	4
85	3
84	3
83	4
82	2
81	8
80	5
